(set-logic HORN)
(set-info :source |
    Benchmark: C_VC
    Output by Princess (http://www.philipp.ruemmer.org/princess.shtml)
|)
(set-info :status unsat)
(declare-heap Heap Addr HeapObject
 defObj
 ((HeapObject 0)) (
  (
   (O_Int (getInt Int))
   (O_UInt (getUInt Int))
   (O_Addr (getAddr Addr))
   (defObj)
  )
))
(declare-fun inv_main11 (Heap Int AddrRange AddrRange Int Int Int) Bool)
(declare-fun inv_main15 (Heap Int AddrRange AddrRange Int Int Int) Bool)
(declare-fun inv_main2 (Heap) Bool)
(declare-fun inv_main20 (Heap Int AddrRange AddrRange Int Int Int) Bool)
(declare-fun inv_main23 (Heap Int AddrRange AddrRange Int Int Int Int) Bool)
(declare-fun inv_main26 (Heap Int AddrRange AddrRange Int Int Int) Bool)
(assert (inv_main2 emptyHeap))
(assert (forall ((var0 Int) (var1 Int) (var2 AddrRange) (var3 AddrRange) (var4 Int) (var5 Heap) (var6 Int) (var7 Int) (var8 Int) (var9 Int) (var10 Int) (var11 AddrRange) (var12 AddrRange) (var13 Int) (var14 Heap)) (or (not (and (inv_main15 var14 var13 var12 var11 var10 var9 var8) (and (<= 0 (+ (+ var7 (* (- 1) (+ var6 1))) (- 1))) (and (and (is-O_Int (read var14 (nthAddrRange var12 var9))) (is-O_Int (read var14 (nthAddrRange var12 var9)))) (and (and (and (and (and (and (= var5 (write var14 (nthAddrRange var12 var9) (O_Int var4))) (= var7 var13)) (= var3 var12)) (= var2 var11)) (= var1 var10)) (= var6 var9)) (= var0 var8)))))) (inv_main15 var5 var7 var3 var2 var1 (+ var6 1) var0))))
(assert (forall ((var0 Int) (var1 AddrRange) (var2 AddrRange) (var3 Int) (var4 Int) (var5 Int) (var6 Heap) (var7 Int) (var8 Heap)) (or (not (and (inv_main2 var8) (and (and (<= 0 (+ var7 (- 1))) (and (and (and (= var6 (newBatchHeap (batchAlloc (newBatchHeap (batchAlloc emptyHeap (O_Int var5) var4)) (O_Int var3) var4))) (= var7 var4)) (= var2 (newAddrRange (batchAlloc emptyHeap (O_Int var5) var4)))) (= var1 (newAddrRange (batchAlloc (newBatchHeap (batchAlloc emptyHeap (O_Int var5) var4)) (O_Int var3) var4))))) (and (<= 0 (+ var4 (- 1))) (<= 0 var4))))) (inv_main15 var6 var7 var2 var1 0 0 var0))))
(assert (forall ((var0 Int) (var1 Int) (var2 Int) (var3 AddrRange) (var4 AddrRange) (var5 Int) (var6 Heap)) (or (not (and (inv_main20 var6 var5 var4 var3 var2 var1 var0) (is-O_Int (read var6 (nthAddrRange var4 0))))) (inv_main23 var6 var5 var4 var3 var2 var1 var0 (getInt (read var6 (nthAddrRange var4 0)))))))
(assert (forall ((var0 Int) (var1 Int) (var2 Int) (var3 AddrRange) (var4 AddrRange) (var5 Heap) (var6 Int) (var7 Int) (var8 Int) (var9 Int) (var10 AddrRange) (var11 AddrRange) (var12 Int) (var13 Heap)) (or (not (and (inv_main11 var13 var12 var11 var10 var9 var8 var7) (and (<= 0 (+ var6 (- 1))) (and (and (is-O_Int (read var13 (nthAddrRange var11 (+ var12 (- 1))))) (is-O_Int (read var13 (nthAddrRange var11 (+ var12 (- 1)))))) (and (and (and (and (and (and (= var5 (write var13 (nthAddrRange var11 (+ var12 (- 1))) (O_Int 0))) (= var6 var12)) (= var4 var11)) (= var3 var10)) (= var2 var9)) (= var1 var8)) (= var0 var7)))))) (inv_main20 var5 var6 var4 var3 var2 (+ var6 (- 1)) 0))))
(assert (forall ((var0 Int) (var1 Int) (var2 AddrRange) (var3 AddrRange) (var4 Int) (var5 Heap) (var6 Int) (var7 Int) (var8 Int) (var9 Int) (var10 Int) (var11 AddrRange) (var12 AddrRange) (var13 Int) (var14 Heap)) (or (not (and (inv_main23 var14 var13 var12 var11 var10 var9 var8 var7) (and (<= 0 (+ var6 (- 1))) (and (and (is-O_Int (read var14 (nthAddrRange var11 var8))) (is-O_Int (read var14 (nthAddrRange var11 var8)))) (and (and (and (and (and (and (= var5 (write var14 (nthAddrRange var11 var8) (O_Int var7))) (= var4 var13)) (= var3 var12)) (= var2 var11)) (= var1 var10)) (= var6 var9)) (= var0 var8)))))) (inv_main20 var5 var4 var3 var2 var1 (+ var6 (- 1)) (+ var0 1)))))
(assert (forall ((var0 Int) (var1 Int) (var2 Int) (var3 AddrRange) (var4 AddrRange) (var5 Int) (var6 Heap)) (or (not (and (inv_main26 var6 var5 var4 var3 var2 var1 var0) (and (<= 0 (+ (+ var5 (* (- 1) (+ var1 1))) (- 1))) (and (is-O_Int (read var6 (nthAddrRange var4 var1))) (is-O_Int (read var6 (nthAddrRange var3 var0))))))) (inv_main26 var6 var5 var4 var3 var2 (+ var1 1) (+ var0 (- 1))))))
(assert (forall ((var0 Int) (var1 Int) (var2 Int) (var3 AddrRange) (var4 AddrRange) (var5 Heap) (var6 Int) (var7 Int) (var8 Int) (var9 Int) (var10 AddrRange) (var11 AddrRange) (var12 Int) (var13 Heap)) (or (not (and (inv_main11 var13 var12 var11 var10 var9 var8 var7) (and (<= 0 (+ var6 (- 1))) (and (not (<= 0 (+ var6 (- 1)))) (and (and (is-O_Int (read var13 (nthAddrRange var11 (+ var12 (- 1))))) (is-O_Int (read var13 (nthAddrRange var11 (+ var12 (- 1)))))) (and (and (and (and (and (and (= var5 (write var13 (nthAddrRange var11 (+ var12 (- 1))) (O_Int 0))) (= var6 var12)) (= var4 var11)) (= var3 var10)) (= var2 var9)) (= var1 var8)) (= var0 var7))))))) (inv_main26 var5 var6 var4 var3 var2 0 (+ var6 (- 1))))))
(assert (forall ((var0 Int) (var1 Int) (var2 AddrRange) (var3 AddrRange) (var4 Heap) (var5 Int) (var6 Int) (var7 Int) (var8 Int) (var9 Int) (var10 Int) (var11 AddrRange) (var12 AddrRange) (var13 Int) (var14 Heap)) (or (not (and (inv_main23 var14 var13 var12 var11 var10 var9 var8 var7) (and (<= 0 (+ var6 (- 1))) (and (not (<= 0 (+ var5 (- 1)))) (and (and (is-O_Int (read var14 (nthAddrRange var11 var8))) (is-O_Int (read var14 (nthAddrRange var11 var8)))) (and (and (and (and (and (and (= var4 (write var14 (nthAddrRange var11 var8) (O_Int var7))) (= var6 var13)) (= var3 var12)) (= var2 var11)) (= var1 var10)) (= var5 var9)) (= var0 var8))))))) (inv_main26 var4 var6 var3 var2 var1 0 (+ var6 (- 1))))))
(assert (forall ((var0 Int) (var1 Int) (var2 AddrRange) (var3 AddrRange) (var4 Int) (var5 Heap) (var6 Int) (var7 Int) (var8 Int) (var9 Int) (var10 Int) (var11 AddrRange) (var12 AddrRange) (var13 Int) (var14 Heap)) (or (not (and (inv_main15 var14 var13 var12 var11 var10 var9 var8) (and (not (<= 0 (+ (+ var7 (* (- 1) (+ var6 1))) (- 1)))) (and (and (is-O_Int (read var14 (nthAddrRange var12 var9))) (is-O_Int (read var14 (nthAddrRange var12 var9)))) (and (and (and (and (and (and (= var5 (write var14 (nthAddrRange var12 var9) (O_Int var4))) (= var7 var13)) (= var3 var12)) (= var2 var11)) (= var1 var10)) (= var6 var9)) (= var0 var8)))))) (inv_main11 var5 var7 var3 var2 var1 (+ var6 1) var0))))
(assert (forall ((var0 Int) (var1 AddrRange) (var2 AddrRange) (var3 Int) (var4 Int) (var5 Int) (var6 Heap) (var7 Int) (var8 Heap)) (or (not (and (inv_main2 var8) (and (and (not (<= 0 (+ var7 (- 1)))) (and (and (and (= var6 (newBatchHeap (batchAlloc (newBatchHeap (batchAlloc emptyHeap (O_Int var5) var4)) (O_Int var3) var4))) (= var7 var4)) (= var2 (newAddrRange (batchAlloc emptyHeap (O_Int var5) var4)))) (= var1 (newAddrRange (batchAlloc (newBatchHeap (batchAlloc emptyHeap (O_Int var5) var4)) (O_Int var3) var4))))) (and (<= 0 (+ var4 (- 1))) (<= 0 var4))))) (inv_main11 var6 var7 var2 var1 0 0 var0))))
(assert (forall ((var0 Int) (var1 Int) (var2 Int) (var3 AddrRange) (var4 AddrRange) (var5 Int) (var6 Heap)) (not (and (inv_main15 var6 var5 var4 var3 var2 var1 var0) (not (is-O_Int (read var6 (nthAddrRange var4 var1))))))))
(assert (forall ((var0 Int) (var1 Int) (var2 Int) (var3 AddrRange) (var4 AddrRange) (var5 Int) (var6 Heap)) (not (and (inv_main15 var6 var5 var4 var3 var2 var1 var0) (and (is-O_Int (read var6 (nthAddrRange var4 var1))) (not (within var4 (nthAddrRange var4 var1))))))))
(assert (forall ((var0 Int) (var1 Int) (var2 Int) (var3 AddrRange) (var4 AddrRange) (var5 Int) (var6 Heap)) (not (and (inv_main15 var6 var5 var4 var3 var2 var1 var0) (and (is-O_Int (read var6 (nthAddrRange var4 var1))) (not (is-O_Int (read var6 (nthAddrRange var4 var1)))))))))
(assert (forall ((var0 Int) (var1 Int) (var2 Int) (var3 AddrRange) (var4 AddrRange) (var5 Int) (var6 Heap)) (not (and (inv_main11 var6 var5 var4 var3 var2 var1 var0) (not (is-O_Int (read var6 (nthAddrRange var4 (+ var5 (- 1))))))))))
(assert (forall ((var0 Int) (var1 Int) (var2 Int) (var3 AddrRange) (var4 AddrRange) (var5 Int) (var6 Heap)) (not (and (inv_main11 var6 var5 var4 var3 var2 var1 var0) (and (is-O_Int (read var6 (nthAddrRange var4 (+ var5 (- 1))))) (not (within var4 (nthAddrRange var4 (+ var5 (- 1))))))))))
(assert (forall ((var0 Int) (var1 Int) (var2 Int) (var3 AddrRange) (var4 AddrRange) (var5 Int) (var6 Heap)) (not (and (inv_main11 var6 var5 var4 var3 var2 var1 var0) (and (is-O_Int (read var6 (nthAddrRange var4 (+ var5 (- 1))))) (not (is-O_Int (read var6 (nthAddrRange var4 (+ var5 (- 1)))))))))))
(assert (forall ((var0 Int) (var1 Int) (var2 Int) (var3 AddrRange) (var4 AddrRange) (var5 Int) (var6 Heap)) (not (and (inv_main20 var6 var5 var4 var3 var2 var1 var0) (not (is-O_Int (read var6 (nthAddrRange var4 0))))))))
(assert (forall ((var0 Int) (var1 Int) (var2 Int) (var3 AddrRange) (var4 AddrRange) (var5 Int) (var6 Heap)) (not (and (inv_main20 var6 var5 var4 var3 var2 var1 var0) (and (is-O_Int (read var6 (nthAddrRange var4 0))) (not (within var4 (nthAddrRange var4 0))))))))
(assert (forall ((var0 Int) (var1 Int) (var2 Int) (var3 Int) (var4 AddrRange) (var5 AddrRange) (var6 Int) (var7 Heap)) (not (and (inv_main23 var7 var6 var5 var4 var3 var2 var1 var0) (not (is-O_Int (read var7 (nthAddrRange var4 var1))))))))
(assert (forall ((var0 Int) (var1 Int) (var2 Int) (var3 Int) (var4 AddrRange) (var5 AddrRange) (var6 Int) (var7 Heap)) (not (and (inv_main23 var7 var6 var5 var4 var3 var2 var1 var0) (and (is-O_Int (read var7 (nthAddrRange var4 var1))) (not (within var4 (nthAddrRange var4 var1))))))))
(assert (forall ((var0 Int) (var1 Int) (var2 Int) (var3 Int) (var4 AddrRange) (var5 AddrRange) (var6 Int) (var7 Heap)) (not (and (inv_main23 var7 var6 var5 var4 var3 var2 var1 var0) (and (is-O_Int (read var7 (nthAddrRange var4 var1))) (not (is-O_Int (read var7 (nthAddrRange var4 var1)))))))))
(assert (forall ((var0 Int) (var1 Int) (var2 Int) (var3 AddrRange) (var4 AddrRange) (var5 Int) (var6 Heap)) (not (and (inv_main26 var6 var5 var4 var3 var2 var1 var0) (not (is-O_Int (read var6 (nthAddrRange var4 var1))))))))
(assert (forall ((var0 Int) (var1 Int) (var2 Int) (var3 AddrRange) (var4 AddrRange) (var5 Int) (var6 Heap)) (not (and (inv_main26 var6 var5 var4 var3 var2 var1 var0) (not (within var4 (nthAddrRange var4 var1)))))))
(assert (forall ((var0 Int) (var1 Int) (var2 Int) (var3 AddrRange) (var4 AddrRange) (var5 Int) (var6 Heap)) (not (and (inv_main26 var6 var5 var4 var3 var2 var1 var0) (not (is-O_Int (read var6 (nthAddrRange var3 var0))))))))
(assert (forall ((var0 Int) (var1 Int) (var2 Int) (var3 AddrRange) (var4 AddrRange) (var5 Int) (var6 Heap)) (not (and (inv_main26 var6 var5 var4 var3 var2 var1 var0) (not (within var3 (nthAddrRange var3 var0)))))))
(assert (forall ((var0 Int) (var1 Int) (var2 Int) (var3 AddrRange) (var4 AddrRange) (var5 Int) (var6 Heap)) (not (and (inv_main26 var6 var5 var4 var3 var2 var1 var0) (not (is-O_Int (read var6 (nthAddrRange var4 var1))))))))
(assert (forall ((var0 Int) (var1 Int) (var2 Int) (var3 AddrRange) (var4 AddrRange) (var5 Int) (var6 Heap)) (not (and (inv_main26 var6 var5 var4 var3 var2 var1 var0) (and (is-O_Int (read var6 (nthAddrRange var4 var1))) (not (within var4 (nthAddrRange var4 var1))))))))
(assert (forall ((var0 Int) (var1 Int) (var2 Int) (var3 AddrRange) (var4 AddrRange) (var5 Int) (var6 Heap)) (not (and (inv_main26 var6 var5 var4 var3 var2 var1 var0) (and (is-O_Int (read var6 (nthAddrRange var4 var1))) (not (is-O_Int (read var6 (nthAddrRange var3 var0)))))))))
(assert (forall ((var0 Int) (var1 Int) (var2 Int) (var3 AddrRange) (var4 AddrRange) (var5 Int) (var6 Heap)) (not (and (inv_main26 var6 var5 var4 var3 var2 var1 var0) (and (and (is-O_Int (read var6 (nthAddrRange var4 var1))) (is-O_Int (read var6 (nthAddrRange var3 var0)))) (not (within var3 (nthAddrRange var3 var0))))))))
(assert (forall ((var0 Int) (var1 Int) (var2 Int) (var3 AddrRange) (var4 AddrRange) (var5 Int) (var6 Heap)) (not (and (inv_main26 var6 var5 var4 var3 var2 var1 var0) (and (and (is-O_Int (read var6 (nthAddrRange var4 var1))) (is-O_Int (read var6 (nthAddrRange var3 var0)))) (not (= (getInt (read var6 (nthAddrRange var4 var1))) (getInt (read var6 (nthAddrRange var3 var0))))))))))
(check-sat)
